100 22110268
89 93 28 46 69 15 60 97 45 16 98 57 82 86 74 25 4 24 90 92 6 67 41 68 3 55 61 31 72 91 75 5 84 47 39 20 34 10 37 43 64 85 70 51 8 63 12 2 35 17 53 29 23 13 11 49 80 87 30 50 27 73 1 32 99 54 76 59 62 94 66 18 36 77 40 100 38 78 56 79 9 58 44 14 48 96 88 22 33 26 83 21 52 81 19 42 7 65 95 71 
